p cnf 637 450
c p distribution  0.875 0.125
c p distribution  0.875 0.125
c p distribution  0.875 0.125
c p distribution  0.875 0.125
c p distribution  0.875 0.125
c p distribution  0.875 0.125
c p distribution  0.875 0.125
c p distribution  0.875 0.125
c p distribution  0.875 0.125
c p distribution  0.875 0.125
c p distribution  0.875 0.125
c p distribution  0.875 0.125
c p distribution  0.875 0.125
c p distribution  0.875 0.125
c p distribution  0.875 0.125
c p distribution  0.875 0.125
c p distribution  0.875 0.125
c p distribution  0.875 0.125
c p distribution  0.875 0.125
c p distribution  0.875 0.125
c p distribution  0.875 0.125
c p distribution  0.875 0.125
c p distribution  0.875 0.125
c p distribution  0.875 0.125
c p distribution  0.875 0.125
c p distribution  0.875 0.125
c p distribution  0.875 0.125
c p distribution  0.875 0.125
c p distribution  0.875 0.125
c p distribution  0.875 0.125
c p distribution  0.875 0.125
c p distribution  0.875 0.125
c p distribution  0.875 0.125
c p distribution  0.875 0.125
c p distribution  0.875 0.125
c p distribution  0.875 0.125
c p distribution  0.875 0.125
c p distribution  0.875 0.125
c p distribution  0.875 0.125
c p distribution  0.875 0.125
c p distribution  0.875 0.125
c p distribution  0.875 0.125
c p distribution  0.875 0.125
c p distribution  0.875 0.125
c p distribution  0.875 0.125
c p distribution  0.875 0.125
c p distribution  0.875 0.125
c p distribution  0.875 0.125
c p distribution  0.875 0.125
c p distribution  0.875 0.125
c p distribution  0.875 0.125
c p distribution  0.875 0.125
c p distribution  0.875 0.125
c p distribution  0.875 0.125
c p distribution  0.875 0.125
c p distribution  0.875 0.125
c p distribution  0.875 0.125
c p distribution  0.875 0.125
c p distribution  0.875 0.125
c p distribution  0.875 0.125
c p distribution  0.875 0.125
c p distribution  0.875 0.125
c p distribution  0.875 0.125
c p distribution  0.875 0.125
c p distribution  0.875 0.125
c p distribution  0.875 0.125
c p distribution  0.875 0.125
c p distribution  0.875 0.125
c p distribution  0.875 0.125
c p distribution  0.875 0.125
c p distribution  0.875 0.125
c p distribution  0.875 0.125
c p distribution  0.875 0.125
c p distribution  0.875 0.125
c p distribution  0.875 0.125
c p distribution  0.875 0.125
c p distribution  0.875 0.125
c p distribution  0.875 0.125
c p distribution  0.875 0.125
c p distribution  0.875 0.125
c p distribution  0.875 0.125
c p distribution  0.875 0.125
c p distribution  0.875 0.125
c p distribution  0.875 0.125
c p distribution  0.875 0.125
c p distribution  0.875 0.125
c p distribution  0.875 0.125
c p distribution  0.875 0.125
c p distribution  0.875 0.125
c p distribution  0.875 0.125
c p distribution  0.875 0.125
c p distribution  0.875 0.125
c p distribution  0.875 0.125
c p distribution  0.875 0.125
c p distribution  0.875 0.125
c p distribution  0.875 0.125
c p distribution  0.875 0.125
c p distribution  0.875 0.125
c p distribution  0.875 0.125
c p distribution  0.875 0.125
c p distribution  0.875 0.125
c p distribution  0.875 0.125
c p distribution  0.875 0.125
c p distribution  0.875 0.125
c p distribution  0.875 0.125
c p distribution  0.875 0.125
c p distribution  0.875 0.125
c p distribution  0.875 0.125
c p distribution  0.875 0.125
c p distribution  0.875 0.125
c p distribution  0.875 0.125
c p distribution  0.875 0.125
c p distribution  0.875 0.125
c p distribution  0.875 0.125
c p distribution  0.875 0.125
c p distribution  0.875 0.125
c p distribution  0.875 0.125
c p distribution  0.875 0.125
c p distribution  0.875 0.125
c p distribution  0.875 0.125
c p distribution  0.875 0.125
c p distribution  0.875 0.125
c p distribution  0.875 0.125
c p distribution  0.875 0.125
c p distribution  0.875 0.125
c p distribution  0.875 0.125
c p distribution  0.875 0.125
c p distribution  0.875 0.125
c p distribution  0.875 0.125
c p distribution  0.875 0.125
c p distribution  0.875 0.125
c p distribution  0.875 0.125
c p distribution  0.875 0.125
c p distribution  0.875 0.125
c p distribution  0.875 0.125
c p distribution  0.875 0.125
c p distribution  0.875 0.125
c p distribution  0.875 0.125
c p distribution  0.875 0.125
c p distribution  0.875 0.125
c p distribution  0.875 0.125
c p distribution  0.875 0.125
c p distribution  0.875 0.125
c p distribution  0.875 0.125
c p distribution  0.875 0.125
c p distribution  0.875 0.125
c p distribution  0.875 0.125
c p distribution  0.875 0.125
c p distribution  0.875 0.125
c p distribution  0.875 0.125
c p distribution  0.875 0.125
c p distribution  0.875 0.125
c p distribution  0.875 0.125
c p distribution  0.875 0.125
c p distribution  0.875 0.125
c p distribution  0.875 0.125
c p distribution  0.875 0.125
c p distribution  0.875 0.125
c p distribution  0.875 0.125
c p distribution  0.875 0.125
c p distribution  0.875 0.125
c p distribution  0.875 0.125
c p distribution  0.875 0.125
c p distribution  0.875 0.125
c p distribution  0.875 0.125
c p distribution  0.875 0.125
c p distribution  0.875 0.125
c p distribution  0.875 0.125
c p distribution  0.875 0.125
c p distribution  0.875 0.125
c p distribution  0.875 0.125
c p distribution  0.875 0.125
c p distribution  0.875 0.125
c p distribution  0.875 0.125
c p distribution  0.875 0.125
c p distribution  0.875 0.125
c p distribution  0.875 0.125
c p distribution  0.875 0.125
c p distribution  0.875 0.125
c p distribution  0.875 0.125
c p distribution  0.875 0.125
c p distribution  0.875 0.125
c p distribution  0.875 0.125
c p distribution  0.875 0.125
c p distribution  0.875 0.125
c p distribution  0.875 0.125
c p distribution  0.875 0.125
c p distribution  0.875 0.125
c p distribution  0.875 0.125
c p distribution  0.875 0.125
c p distribution  0.875 0.125
c p distribution  0.875 0.125
c p distribution  0.875 0.125
c p distribution  0.875 0.125
c p distribution  0.875 0.125
c p distribution  0.875 0.125
c p distribution  0.875 0.125
c p distribution  0.875 0.125
c p distribution  0.875 0.125
c p distribution  0.875 0.125
c p distribution  0.875 0.125
c p distribution  0.875 0.125
c p distribution  0.875 0.125
c p distribution  0.875 0.125
c p distribution  0.875 0.125
c p distribution  0.875 0.125
c p distribution  0.875 0.125
c p distribution  0.875 0.125
c p distribution  0.875 0.125
c p distribution  0.875 0.125
c p distribution  0.875 0.125
c p distribution  0.875 0.125
c p distribution  0.875 0.125
c p distribution  0.875 0.125
c p distribution  0.875 0.125
c p distribution  0.875 0.125
c p distribution  0.875 0.125
c p distribution  0.875 0.125
c p distribution  0.875 0.125
c p distribution  0.875 0.125
c p distribution  0.875 0.125
c p distribution  0.875 0.125
c p distribution  0.875 0.125
c p distribution  0.875 0.125
452 0
-605 0
479 -540 -1 0
540 -479 -1 0
621 -608 -3 0
608 -621 -3 0
508 -592 -5 0
592 -508 -5 0
548 -490 -7 0
490 -548 -7 0
450 -582 -9 0
582 -450 -9 0
492 -478 -11 0
478 -492 -11 0
499 -509 -13 0
509 -499 -13 0
566 -455 -15 0
455 -566 -15 0
466 -484 -17 0
484 -466 -17 0
586 -588 -19 0
588 -586 -19 0
471 -546 -21 0
546 -471 -21 0
633 -470 -23 0
470 -633 -23 0
450 -547 -25 0
547 -450 -25 0
602 -589 -27 0
589 -602 -27 0
498 -561 -29 0
561 -498 -29 0
602 -635 -31 0
635 -602 -31 0
628 -498 -33 0
498 -628 -33 0
522 -450 -35 0
450 -522 -35 0
624 -478 -37 0
478 -624 -37 0
497 -613 -39 0
613 -497 -39 0
488 -632 -41 0
632 -488 -41 0
459 -551 -43 0
551 -459 -43 0
598 -620 -45 0
620 -598 -45 0
599 -539 -47 0
539 -599 -47 0
545 -536 -49 0
536 -545 -49 0
597 -602 -51 0
602 -597 -51 0
512 -481 -53 0
481 -512 -53 0
521 -613 -55 0
613 -521 -55 0
583 -594 -57 0
594 -583 -57 0
514 -564 -59 0
564 -514 -59 0
539 -459 -61 0
459 -539 -61 0
606 -604 -63 0
604 -606 -63 0
603 -546 -65 0
546 -603 -65 0
544 -449 -67 0
449 -544 -67 0
508 -501 -69 0
501 -508 -69 0
579 -541 -71 0
541 -579 -71 0
487 -617 -73 0
617 -487 -73 0
554 -574 -75 0
574 -554 -75 0
490 -510 -77 0
510 -490 -77 0
469 -570 -79 0
570 -469 -79 0
454 -556 -81 0
556 -454 -81 0
521 -586 -83 0
586 -521 -83 0
513 -464 -85 0
464 -513 -85 0
539 -622 -87 0
622 -539 -87 0
492 -502 -89 0
502 -492 -89 0
623 -504 -91 0
504 -623 -91 0
573 -576 -93 0
576 -573 -93 0
535 -547 -95 0
547 -535 -95 0
543 -565 -97 0
565 -543 -97 0
451 -480 -99 0
480 -451 -99 0
470 -616 -101 0
616 -470 -101 0
460 -621 -103 0
621 -460 -103 0
462 -597 -105 0
597 -462 -105 0
495 -507 -107 0
507 -495 -107 0
604 -451 -109 0
451 -604 -109 0
451 -514 -111 0
514 -451 -111 0
462 -486 -113 0
486 -462 -113 0
588 -560 -115 0
560 -588 -115 0
566 -455 -117 0
455 -566 -117 0
460 -504 -119 0
504 -460 -119 0
624 -566 -121 0
566 -624 -121 0
513 -539 -123 0
539 -513 -123 0
582 -487 -125 0
487 -582 -125 0
563 -627 -127 0
627 -563 -127 0
545 -525 -129 0
525 -545 -129 0
517 -520 -131 0
520 -517 -131 0
563 -491 -133 0
491 -563 -133 0
475 -560 -135 0
560 -475 -135 0
496 -572 -137 0
572 -496 -137 0
453 -455 -139 0
455 -453 -139 0
500 -567 -141 0
567 -500 -141 0
493 -499 -143 0
499 -493 -143 0
521 -613 -145 0
613 -521 -145 0
536 -473 -147 0
473 -536 -147 0
484 -458 -149 0
458 -484 -149 0
559 -469 -151 0
469 -559 -151 0
559 -517 -153 0
517 -559 -153 0
489 -553 -155 0
553 -489 -155 0
619 -453 -157 0
453 -619 -157 0
585 -478 -159 0
478 -585 -159 0
527 -483 -161 0
483 -527 -161 0
602 -542 -163 0
542 -602 -163 0
528 -624 -165 0
624 -528 -165 0
540 -477 -167 0
477 -540 -167 0
492 -494 -169 0
494 -492 -169 0
481 -493 -171 0
493 -481 -171 0
463 -557 -173 0
557 -463 -173 0
584 -610 -175 0
610 -584 -175 0
629 -471 -177 0
471 -629 -177 0
569 -626 -179 0
626 -569 -179 0
527 -552 -181 0
552 -527 -181 0
516 -453 -183 0
453 -516 -183 0
536 -450 -185 0
450 -536 -185 0
544 -566 -187 0
566 -544 -187 0
636 -457 -189 0
457 -636 -189 0
465 -471 -191 0
471 -465 -191 0
590 -616 -193 0
616 -590 -193 0
476 -453 -195 0
453 -476 -195 0
450 -487 -197 0
487 -450 -197 0
529 -450 -199 0
450 -529 -199 0
614 -624 -201 0
624 -614 -201 0
555 -571 -203 0
571 -555 -203 0
460 -596 -205 0
596 -460 -205 0
466 -511 -207 0
511 -466 -207 0
464 -616 -209 0
616 -464 -209 0
533 -568 -211 0
568 -533 -211 0
470 -459 -213 0
459 -470 -213 0
630 -618 -215 0
618 -630 -215 0
492 -478 -217 0
478 -492 -217 0
556 -568 -219 0
568 -556 -219 0
530 -632 -221 0
632 -530 -221 0
467 -541 -223 0
541 -467 -223 0
561 -519 -225 0
519 -561 -225 0
600 -476 -227 0
476 -600 -227 0
544 -636 -229 0
636 -544 -229 0
629 -468 -231 0
468 -629 -231 0
558 -604 -233 0
604 -558 -233 0
522 -452 -235 0
452 -522 -235 0
577 -458 -237 0
458 -577 -237 0
492 -482 -239 0
482 -492 -239 0
519 -602 -241 0
602 -519 -241 0
592 -453 -243 0
453 -592 -243 0
548 -529 -245 0
529 -548 -245 0
632 -468 -247 0
468 -632 -247 0
633 -464 -249 0
464 -633 -249 0
551 -470 -251 0
470 -551 -251 0
528 -591 -253 0
591 -528 -253 0
463 -613 -255 0
613 -463 -255 0
556 -472 -257 0
472 -556 -257 0
634 -464 -259 0
464 -634 -259 0
492 -624 -261 0
624 -492 -261 0
602 -552 -263 0
552 -602 -263 0
505 -465 -265 0
465 -505 -265 0
570 -579 -267 0
579 -570 -267 0
609 -543 -269 0
543 -609 -269 0
627 -491 -271 0
491 -627 -271 0
516 -453 -273 0
453 -516 -273 0
525 -510 -275 0
510 -525 -275 0
626 -621 -277 0
621 -626 -277 0
502 -571 -279 0
571 -502 -279 0
592 -534 -281 0
534 -592 -281 0
508 -534 -283 0
534 -508 -283 0
625 -608 -285 0
608 -625 -285 0
474 -612 -287 0
612 -474 -287 0
589 -482 -289 0
482 -589 -289 0
600 -587 -291 0
587 -600 -291 0
480 -540 -293 0
540 -480 -293 0
481 -554 -295 0
554 -481 -295 0
595 -589 -297 0
589 -595 -297 0
527 -631 -299 0
631 -527 -299 0
492 -627 -301 0
627 -492 -301 0
526 -570 -303 0
570 -526 -303 0
564 -503 -305 0
503 -564 -305 0
486 -523 -307 0
523 -486 -307 0
481 -461 -309 0
461 -481 -309 0
475 -524 -311 0
524 -475 -311 0
588 -586 -313 0
586 -588 -313 0
516 -503 -315 0
503 -516 -315 0
615 -492 -317 0
492 -615 -317 0
514 -584 -319 0
584 -514 -319 0
636 -624 -321 0
624 -636 -321 0
538 -587 -323 0
587 -538 -323 0
617 -452 -325 0
452 -617 -325 0
458 -601 -327 0
601 -458 -327 0
539 -601 -329 0
601 -539 -329 0
615 -555 -331 0
555 -615 -331 0
496 -489 -333 0
489 -496 -333 0
600 -541 -335 0
541 -600 -335 0
605 -573 -337 0
573 -605 -337 0
566 -455 -339 0
455 -566 -339 0
551 -618 -341 0
618 -551 -341 0
513 -578 -343 0
578 -513 -343 0
521 -586 -345 0
586 -521 -345 0
547 -543 -347 0
543 -547 -347 0
568 -625 -349 0
625 -568 -349 0
485 -557 -351 0
557 -485 -351 0
537 -529 -353 0
529 -537 -353 0
560 -506 -355 0
506 -560 -355 0
597 -542 -357 0
542 -597 -357 0
493 -461 -359 0
461 -493 -359 0
597 -523 -361 0
523 -597 -361 0
515 -536 -363 0
536 -515 -363 0
504 -456 -365 0
456 -504 -365 0
474 -456 -367 0
456 -474 -367 0
637 -505 -369 0
505 -637 -369 0
455 -593 -371 0
593 -455 -371 0
500 -476 -373 0
476 -500 -373 0
475 -546 -375 0
546 -475 -375 0
530 -572 -377 0
572 -530 -377 0
584 -610 -379 0
610 -584 -379 0
532 -471 -381 0
471 -532 -381 0
585 -550 -383 0
550 -585 -383 0
464 -578 -385 0
578 -464 -385 0
512 -557 -387 0
557 -512 -387 0
495 -635 -389 0
635 -495 -389 0
599 -515 -391 0
515 -599 -391 0
526 -593 -393 0
593 -526 -393 0
569 -631 -395 0
631 -569 -395 0
609 -574 -397 0
574 -609 -397 0
614 -611 -399 0
611 -614 -399 0
456 -593 -401 0
593 -456 -401 0
626 -505 -403 0
505 -626 -403 0
545 -525 -405 0
525 -545 -405 0
582 -617 -407 0
617 -582 -407 0
539 -630 -409 0
630 -539 -409 0
545 -536 -411 0
536 -545 -411 0
499 -625 -413 0
625 -499 -413 0
483 -631 -415 0
631 -483 -415 0
474 -518 -417 0
518 -474 -417 0
611 -581 -419 0
581 -611 -419 0
597 -492 -421 0
492 -597 -421 0
580 -491 -423 0
491 -580 -423 0
635 -552 -425 0
552 -635 -425 0
461 -573 -427 0
573 -461 -427 0
575 -507 -429 0
507 -575 -429 0
465 -562 -431 0
562 -465 -431 0
575 -553 -433 0
553 -575 -433 0
585 -620 -435 0
620 -585 -435 0
597 -542 -437 0
542 -597 -437 0
462 -523 -439 0
523 -462 -439 0
499 -477 -441 0
477 -499 -441 0
452 -549 -443 0
549 -452 -443 0
454 -594 -445 0
594 -454 -445 0
620 -478 -447 0
478 -620 -447 0

